150,"VonMisesDensity.jl",841eee2567751b9e079f2ce46a5b3ae69a0d2bc4,1462522381,48266,149
149,"VonMisesDensity.jl",9cb757c78e72cc843b5821130adc97248b7d3e7b,1445888537,48265,148
148,"VonMisesDensity.jl",c5e31f026319a17134f760e00b116cf36cb6728b,1444040942,48264,-1
147,"Utils.jl",841eee2567751b9e079f2ce46a5b3ae69a0d2bc4,1462522381,48263,146
146,"Utils.jl",9cb757c78e72cc843b5821130adc97248b7d3e7b,1445888537,48262,145
145,"Utils.jl",65f1ef2398c18db2a0027b7b5931af222c45e391,1444855340,48261,144
144,"Utils.jl",45a6e223318eaf6b715ed456efdbc1983abb3081,1444043622,48260,143
143,"Utils.jl",c5e31f026319a17134f760e00b116cf36cb6728b,1444040942,48259,-1
142,"SwitchingNode.jl",841eee2567751b9e079f2ce46a5b3ae69a0d2bc4,1462522381,48258,141
140,"SwitchingNode.jl",73c1c065dca1e16ba49ca35300f91c4b26fb8e0b,1453402308,48256,139
139,"SwitchingNode.jl",07a8a45eb5845d43928e05069c8a011a90be4da1,1446990715,48255,138
138,"SwitchingNode.jl",d7d57aa8f9d8b5a831e5f80d61bc693cc2b6b5cd,1446138662,48254,137
137,"SwitchingNode.jl",9cb757c78e72cc843b5821130adc97248b7d3e7b,1445888537,48253,136
136,"SwitchingNode.jl",d61dd7763f76e3339fb3ac02469fdb9ae95cc9f7,1445335912,48252,135
135,"SwitchingNode.jl",65f1ef2398c18db2a0027b7b5931af222c45e391,1444855340,48251,134
134,"SwitchingNode.jl",c5e31f026319a17134f760e00b116cf36cb6728b,1444040942,48250,-1
133,"Sequence.jl",841eee2567751b9e079f2ce46a5b3ae69a0d2bc4,1462522381,48249,132
132,"Sequence.jl",73c1c065dca1e16ba49ca35300f91c4b26fb8e0b,1453402308,48248,131
130,"Sequence.jl",d7d57aa8f9d8b5a831e5f80d61bc693cc2b6b5cd,1446138662,48246,129
129,"Sequence.jl",9cb757c78e72cc843b5821130adc97248b7d3e7b,1445888537,48245,128
128,"Sequence.jl",76afdcde6a84cb417899e62ad3e1f883cfd675ed,1445373375,48244,127
131,"Sequence.jl",07a8a45eb5845d43928e05069c8a011a90be4da1,1446990715,48247,130
126,"Sequence.jl",77cb40f1b17d9ae033bcbe22572db971aa25633b,1445245634,48242,125
141,"SwitchingNode.jl",69d7df3ecd532cbaeabaac5d3b234eabb3f2000c,1454062544,48257,140
125,"Sequence.jl",f79916a0e0c2165a5872e7aa01135e359af3ec2d,1444906185,48241,124
122,"Sequence.jl",e44b561d961766467de7ec9bdebbd004b5f2ff11,1444227531,48238,121
121,"Sequence.jl",fc6aeeafcc83aa5a8b47b5c0f0ed4ff04b558c80,1444043950,48236,120
124,"Sequence.jl",d62026d56909b7ad385c3eeafb394ba85276358d,1444751565,48240,123
120,"Sequence.jl",45a6e223318eaf6b715ed456efdbc1983abb3081,1444043622,48234,119
119,"Sequence.jl",c5e31f026319a17134f760e00b116cf36cb6728b,1444040942,48232,-1
118,"RandTest.jl",c5e31f026319a17134f760e00b116cf36cb6728b,1444040942,48229,-1
117,"Plots.jl",f79916a0e0c2165a5872e7aa01135e359af3ec2d,1444906185,48225,116
116,"Plots.jl",402d997827fd95799afdeed31b5116d78fcc6efa,1444514544,48223,115
115,"Plots.jl",e44b561d961766467de7ec9bdebbd004b5f2ff11,1444227531,48222,114
114,"Plots.jl",c5e31f026319a17134f760e00b116cf36cb6728b,1444040942,48220,-1
113,"PairHMMBackup.jl",c5e31f026319a17134f760e00b116cf36cb6728b,1444040942,48218,-1
112,"PairHMM2.jl",c5e31f026319a17134f760e00b116cf36cb6728b,1444040942,48217,-1
111,"PairHMM.jl",841eee2567751b9e079f2ce46a5b3ae69a0d2bc4,1462522381,48216,110
109,"PairHMM.jl",73c1c065dca1e16ba49ca35300f91c4b26fb8e0b,1453402308,48214,108
108,"PairHMM.jl",917cee016bb3fa74377b6b76c8a521eb4f680ca9,1447066989,48213,107
106,"PairHMM.jl",d7d57aa8f9d8b5a831e5f80d61bc693cc2b6b5cd,1446138662,48211,105
105,"PairHMM.jl",9cb757c78e72cc843b5821130adc97248b7d3e7b,1445888537,48210,104
104,"PairHMM.jl",76afdcde6a84cb417899e62ad3e1f883cfd675ed,1445373375,48209,103
103,"PairHMM.jl",c343a21a0d0cef237034ef6cccaec8d264ff55f1,1445334241,48208,102
102,"PairHMM.jl",c47734616d8c4a1f83b5bb9c7565245e06fee4de,1445293126,48207,101
101,"PairHMM.jl",c537800e5d3d4b96e2df80fbc7a491f71f9c86fd,1445270529,48206,100
100,"PairHMM.jl",77cb40f1b17d9ae033bcbe22572db971aa25633b,1445245634,48205,99
99,"PairHMM.jl",f79916a0e0c2165a5872e7aa01135e359af3ec2d,1444906185,48204,98
98,"PairHMM.jl",65f1ef2398c18db2a0027b7b5931af222c45e391,1444855340,48203,97
96,"PairHMM.jl",402d997827fd95799afdeed31b5116d78fcc6efa,1444514544,48201,95
95,"PairHMM.jl",e44b561d961766467de7ec9bdebbd004b5f2ff11,1444227531,48200,94
94,"PairHMM.jl",28f1b187d841a3d8977c2d68b4c7662fd5ddf170,1444044324,48199,93
151,"WebTest.jl",c5e31f026319a17134f760e00b116cf36cb6728b,1444040942,48267,-1
93,"PairHMM.jl",fc6aeeafcc83aa5a8b47b5c0f0ed4ff04b558c80,1444043950,48198,92
97,"PairHMM.jl",d62026d56909b7ad385c3eeafb394ba85276358d,1444751565,48202,96
92,"PairHMM.jl",45a6e223318eaf6b715ed456efdbc1983abb3081,1444043622,48197,91
91,"PairHMM.jl",e7a4f3494eabc79999993c376ef30f6a943ec68b,1444042628,48196,90
90,"PairHMM.jl",c5e31f026319a17134f760e00b116cf36cb6728b,1444040942,48195,-1
88,"ObservationNode.jl",d7d57aa8f9d8b5a831e5f80d61bc693cc2b6b5cd,1446138662,48193,87
87,"ObservationNode.jl",9cb757c78e72cc843b5821130adc97248b7d3e7b,1445888537,48192,86
86,"ObservationNode.jl",c537800e5d3d4b96e2df80fbc7a491f71f9c86fd,1445270529,48191,85
85,"ObservationNode.jl",77cb40f1b17d9ae033bcbe22572db971aa25633b,1445245634,48190,84
84,"ObservationNode.jl",c5e31f026319a17134f760e00b116cf36cb6728b,1444040942,48189,-1
83,"ModelIO.jl",c5e31f026319a17134f760e00b116cf36cb6728b,1444040942,48188,-1
107,"PairHMM.jl",07a8a45eb5845d43928e05069c8a011a90be4da1,1446990715,48212,106
82,"DiffusionNode.jl",841eee2567751b9e079f2ce46a5b3ae69a0d2bc4,1462522381,48187,81
81,"DiffusionNode.jl",69d7df3ecd532cbaeabaac5d3b234eabb3f2000c,1454062544,48186,80
80,"DiffusionNode.jl",07a8a45eb5845d43928e05069c8a011a90be4da1,1446990715,48185,79
79,"DiffusionNode.jl",9cb757c78e72cc843b5821130adc97248b7d3e7b,1445888537,48184,78
78,"DiffusionNode.jl",f79916a0e0c2165a5872e7aa01135e359af3ec2d,1444906185,48183,77
76,"DiffusionNode.jl",c5e31f026319a17134f760e00b116cf36cb6728b,1444040942,48181,-1
75,"AcceptanceLogger.jl",841eee2567751b9e079f2ce46a5b3ae69a0d2bc4,1462522381,48180,74
74,"AcceptanceLogger.jl",9cb757c78e72cc843b5821130adc97248b7d3e7b,1445888537,48179,73
72,"AcceptanceLogger.jl",e44b561d961766467de7ec9bdebbd004b5f2ff11,1444227531,48177,71
71,"AcceptanceLogger.jl",c5e31f026319a17134f760e00b116cf36cb6728b,1444040942,48176,-1
70,"AAPairNode.jl",841eee2567751b9e079f2ce46a5b3ae69a0d2bc4,1462522381,48175,69
69,"AAPairNode.jl",73c1c065dca1e16ba49ca35300f91c4b26fb8e0b,1453402308,48174,68
68,"AAPairNode.jl",07a8a45eb5845d43928e05069c8a011a90be4da1,1446990715,48173,67
89,"ObservationNode.jl",841eee2567751b9e079f2ce46a5b3ae69a0d2bc4,1462522381,48194,88
67,"AAPairNode.jl",d7d57aa8f9d8b5a831e5f80d61bc693cc2b6b5cd,1446138662,48172,66
66,"AAPairNode.jl",9cb757c78e72cc843b5821130adc97248b7d3e7b,1445888537,48171,65
65,"AAPairNode.jl",d61dd7763f76e3339fb3ac02469fdb9ae95cc9f7,1445335912,48170,64
64,"AAPairNode.jl",402d997827fd95799afdeed31b5116d78fcc6efa,1444514544,48169,63
63,"AAPairNode.jl",c5e31f026319a17134f760e00b116cf36cb6728b,1444040942,48168,-1
110,"PairHMM.jl",69d7df3ecd532cbaeabaac5d3b234eabb3f2000c,1454062544,48215,109
62,"ModelParameters.jl",841eee2567751b9e079f2ce46a5b3ae69a0d2bc4,1462522381,48167,61
61,"ModelParameters.jl",9cb757c78e72cc843b5821130adc97248b7d3e7b,1445888537,48166,60
60,"ModelParameters.jl",402d997827fd95799afdeed31b5116d78fcc6efa,1444514544,48165,59
59,"ModelParameters.jl",28f1b187d841a3d8977c2d68b4c7662fd5ddf170,1444044324,48164,58
58,"ModelParameters.jl",57d41b1ee392b54195d3130244f3a9ebfbf0e4a4,1444042837,48163,-1
57,"ModelOptimization.jl",841eee2567751b9e079f2ce46a5b3ae69a0d2bc4,1462522381,48162,56
56,"ModelOptimization.jl",69d7df3ecd532cbaeabaac5d3b234eabb3f2000c,1454062544,48161,55
77,"DiffusionNode.jl",65f1ef2398c18db2a0027b7b5931af222c45e391,1444855340,48182,76
55,"ModelOptimization.jl",73c1c065dca1e16ba49ca35300f91c4b26fb8e0b,1453402308,48160,54
54,"ModelOptimization.jl",07a8a45eb5845d43928e05069c8a011a90be4da1,1446990715,48159,53
53,"ModelOptimization.jl",9cb757c78e72cc843b5821130adc97248b7d3e7b,1445888537,48158,52
52,"ModelOptimization.jl",76afdcde6a84cb417899e62ad3e1f883cfd675ed,1445373375,48157,51
51,"ModelOptimization.jl",c537800e5d3d4b96e2df80fbc7a491f71f9c86fd,1445270529,48156,50
50,"ModelOptimization.jl",77cb40f1b17d9ae033bcbe22572db971aa25633b,1445245634,48155,49
48,"ModelOptimization.jl",402d997827fd95799afdeed31b5116d78fcc6efa,1444514544,48153,47
47,"ModelOptimization.jl",e44b561d961766467de7ec9bdebbd004b5f2ff11,1444227531,48152,46
46,"ModelOptimization.jl",45a6e223318eaf6b715ed456efdbc1983abb3081,1444043622,48151,-1
45,"AngleUtils.jl",841eee2567751b9e079f2ce46a5b3ae69a0d2bc4,1462522381,48150,44
44,"AngleUtils.jl",73c1c065dca1e16ba49ca35300f91c4b26fb8e0b,1453402308,48149,43
123,"Sequence.jl",402d997827fd95799afdeed31b5116d78fcc6efa,1444514544,48239,122
43,"AngleUtils.jl",9cb757c78e72cc843b5821130adc97248b7d3e7b,1445888537,48148,42
42,"AngleUtils.jl",fc6aeeafcc83aa5a8b47b5c0f0ed4ff04b558c80,1444043950,48147,-1
127,"Sequence.jl",c537800e5d3d4b96e2df80fbc7a491f71f9c86fd,1445270529,48243,126
41,"AlignmentUtils.jl",9cb757c78e72cc843b5821130adc97248b7d3e7b,1445888537,48146,40
40,"AlignmentUtils.jl",c47734616d8c4a1f83b5bb9c7565245e06fee4de,1445293126,48145,39
39,"AlignmentUtils.jl",28f1b187d841a3d8977c2d68b4c7662fd5ddf170,1444044324,48144,-1
38,"Main.jl",841eee2567751b9e079f2ce46a5b3ae69a0d2bc4,1462522381,48143,37
37,"Main.jl",69d7df3ecd532cbaeabaac5d3b234eabb3f2000c,1454062544,48142,36
36,"Main.jl",73c1c065dca1e16ba49ca35300f91c4b26fb8e0b,1453402308,48141,35
49,"ModelOptimization.jl",65f1ef2398c18db2a0027b7b5931af222c45e391,1444855340,48154,48
34,"Main.jl",d7d57aa8f9d8b5a831e5f80d61bc693cc2b6b5cd,1446138662,48139,33
33,"Main.jl",9cb757c78e72cc843b5821130adc97248b7d3e7b,1445888537,48138,32
32,"Main.jl",76afdcde6a84cb417899e62ad3e1f883cfd675ed,1445373375,48137,31
31,"Main.jl",c343a21a0d0cef237034ef6cccaec8d264ff55f1,1445334241,48135,30
73,"AcceptanceLogger.jl",402d997827fd95799afdeed31b5116d78fcc6efa,1444514544,48178,72
30,"Main.jl",c47734616d8c4a1f83b5bb9c7565245e06fee4de,1445293126,48136,29
35,"Main.jl",07a8a45eb5845d43928e05069c8a011a90be4da1,1446990715,48140,34
29,"Main.jl",77cb40f1b17d9ae033bcbe22572db971aa25633b,1445245634,48135,28
28,"Main.jl",f79916a0e0c2165a5872e7aa01135e359af3ec2d,1444906185,48134,27
27,"Main.jl",65f1ef2398c18db2a0027b7b5931af222c45e391,1444855340,48133,26
26,"Main.jl",d62026d56909b7ad385c3eeafb394ba85276358d,1444751565,48132,25
25,"Main.jl",402d997827fd95799afdeed31b5116d78fcc6efa,1444514544,48131,-1
24,"SecondaryStructureNode.jl",9cb757c78e72cc843b5821130adc97248b7d3e7b,1445888537,48130,23
23,"SecondaryStructureNode.jl",77cb40f1b17d9ae033bcbe22572db971aa25633b,1445245634,48129,-1
22,"CTMC.jl",841eee2567751b9e079f2ce46a5b3ae69a0d2bc4,1462522381,48128,21
21,"CTMC.jl",07a8a45eb5845d43928e05069c8a011a90be4da1,1446990715,48127,20
20,"CTMC.jl",d7d57aa8f9d8b5a831e5f80d61bc693cc2b6b5cd,1446138662,48126,19
19,"CTMC.jl",9cb757c78e72cc843b5821130adc97248b7d3e7b,1445888537,48125,18
18,"CTMC.jl",76afdcde6a84cb417899e62ad3e1f883cfd675ed,1445373375,48124,17
17,"CTMC.jl",77cb40f1b17d9ae033bcbe22572db971aa25633b,1445245634,48123,-1
16,"UtilsModule.jl",841eee2567751b9e079f2ce46a5b3ae69a0d2bc4,1462522381,48122,15
15,"UtilsModule.jl",73c1c065dca1e16ba49ca35300f91c4b26fb8e0b,1453402308,48121,14
14,"UtilsModule.jl",07a8a45eb5845d43928e05069c8a011a90be4da1,1446990715,48120,13
12,"NodesModule.jl",841eee2567751b9e079f2ce46a5b3ae69a0d2bc4,1462522381,48118,11
11,"NodesModule.jl",9cb757c78e72cc843b5821130adc97248b7d3e7b,1445888537,48117,-1
10,"WrappedNormalOUNode.jl",c52fce5f97653a88a8971fb028168a39be969b0a,1462522442,48116,-1
9,"TuneMCMC.jl",c52fce5f97653a88a8971fb028168a39be969b0a,1462522442,48115,-1
8,"StatisticalAlignmentHMM.jl",c52fce5f97653a88a8971fb028168a39be969b0a,1462522442,48114,-1
13,"UtilsModule.jl",9cb757c78e72cc843b5821130adc97248b7d3e7b,1445888537,48119,-1
7,"SimulateDiffusion.jl",c52fce5f97653a88a8971fb028168a39be969b0a,1462522442,48113,-1
6,"MCMCmoves.jl",c52fce5f97653a88a8971fb028168a39be969b0a,1462522442,48112,-1
5,"MCMCLogger.jl",c52fce5f97653a88a8971fb028168a39be969b0a,1462522442,48111,-1
4,"FullNode.jl",c52fce5f97653a88a8971fb028168a39be969b0a,1462522442,48110,-1
3,"Cornercut.jl",c52fce5f97653a88a8971fb028168a39be969b0a,1462522442,48109,-1
2,"AcceptanceLogger2.jl",c52fce5f97653a88a8971fb028168a39be969b0a,1462522442,48108,-1
1,"AAPairOpt.jl",c52fce5f97653a88a8971fb028168a39be969b0a,1462522442,48107,-1
0,"AAPairOpt.jl",c5e31f026319a17134f760e00b116cf36cb6728b,1444040942,48107,-1
